32	4
16	13	20	17
0	0	0	0	0	4	2	17	30	31
3	9	13	0	0	3	3	28	29
3	13	0	0	17	2	4	27
5	14	0	0	17	2	5	26
10	0	6	17	0	1	6
6	0	13	0	17	2	7	25
10	0	8	0	13	1	8
3	0	13	0	7	1	9
1	7	0	14	0	1	10
1	0	13	0	13	1	11
7	16	0	12	0	2	12	24
1	0	11	0	8	1	13
9	0	7	0	12	1	14
1	16	0	10	0	1	15
10	0	11	13	0	1	16
5	8	0	13	0	1	18
7	7	0	17	0	2	20	24
8	12	0	0	14	1	19
5	8	0	20	0	1	20
8	0	0	18	17	1	21
5	0	0	1	13	1	22
10	12	0	0	17	1	23
9	10	4	0	0	1	32
7	0	4	0	13	1	32
9	16	0	0	12	1	32
5	0	7	10	0	1	32
6	16	0	20	0	1	32
3	0	13	20	0	1	32
2	0	10	20	0	1	32
7	0	13	0	1	1	32
1	16	0	20	0	1	32
0	0	0	0	0	0
